# abinit input generated by qctoolkit

# datasets section
ndtset 2

# scf section
ngkpt1 2 8 8
shiftk1 0.0 0.0 0.0
tolwfr1 1e-05

# additional section
chkprim 0  
nsym 1  

# band_scan section
iscf2 -2
getden2 -1
kptopt2 -2
tolwfr2 1e-05
ndivk2 20 20
kptbounds2 1.0 0.0 0.5
           0.0 0.0 0.0
           0.0 1.0 1.0
nband2 40
prtwf2 1
prtden2 1

# cell section
ecut 50.0
nstep 1000
acell 3*1.889726124993
rprim 0.0 2.82675 2.82675
      16.9605 0.0 2.82675
      16.9605 2.82675 0.0

# atoms section
natom 12
ntypat 5
typat 1 1 2 2 3 3 3 4 4 4 4 5
znucl 13 15 31 33 49
xred

     0.0833333333333 0.0 0.0
     0.138888888889 0.0 0.0
     0.0902777777778 0.25 0.25
     0.145833333333 0.25 0.25
     0.0 0.0 0.0
     0.0555555555556 0.0 0.0
     0.111111111111 0.0 0.0
     0.00694444444444 0.25 0.25
     0.0347222222222 0.25 0.25
     0.0625 0.25 0.25
     0.118055555556 0.25 0.25
     0.0277777777778 0.0 0.0
